Generated using phonoLAMMPS
1.0
       12.6933093803         0.0000000000         0.0000000000
        0.4137178839        13.0230371832         0.0000000000
       -0.2168511762         0.0870663627        12.5995255988
C 
216
Direct
0.132402880452323   0.548933560633206   0.021125251019400
0.683905380213452   0.162864051792068   0.892571772787309
0.728719625227204   0.718538746703055   0.148878668112604
0.993112907943355   0.701727281173162   0.482516709246499
0.616792835571268   0.737846851481420   0.534030091628278
0.452137996344532   0.437551437709616   0.462622600691819
0.038252840324846   0.169154089299728   0.953826515590761
0.977223331963424   0.332298887386369   0.884961668799812
0.934161310461952   0.402988487170036   0.805663921264369
0.937893226982235   0.858970487459451   0.336256180185348
0.873847936800203   0.510616872250016   0.952702441522341
0.326231318912477   0.365282304549921   0.738724158065639
0.741910564108893   0.597836497065754   0.304321306380391
0.017763044955666   0.005723942845125   0.105260940152089
0.394476052353920   0.661122445874914   0.875438945181438
0.955750748457749   0.825915199680316   0.623312410329796
0.123569597911765   0.098066885589585   0.756655848289081
0.134181030880934   0.041961981340458   0.850332349102128
0.659712519624742   0.784566614752608   0.201434892139250
0.249163839894731   0.382647906625377   0.947259784220504
0.516104835208906   0.010823651945974   0.702083368983551
0.530088334968405   0.359943476103116   0.262987865218956
0.658628745062671   0.281325990843785   0.614399625549178
0.534300451662771   0.102202770003051   0.542064289361060
0.940618903150115   0.126074351764561   0.233589051978299
0.800443662821103   0.539052646125190   0.773649360332137
0.920828377814139   0.043700877088918   0.302691095795165
0.974035713610376   0.760229317513833   0.301542403339523
0.326836044943145   0.544398869291473   0.545264339210860
0.817170375010339   0.910980906441695   0.964216025812675
0.128850213998772   0.471047665618192   0.205479648396173
0.135275650876976   0.426582001935208   0.392929210007043
0.557014826195950   0.375538969026574   0.067599845035524
0.045700300785606   0.363851368933744   0.645507880135948
0.542209640826013   0.019637847022688   0.373524183358795
0.141920300649680   0.209202956752783   0.575914782909850
0.336138002274103   0.623481564642157   0.465627130481703
0.538688724705692   0.125241018961330   0.212838834999899
0.164318613990442   0.269387913903672   0.485405031486462
0.912936174299641   0.442793984842939   0.030049158044177
0.841749021927752   0.421590007719488   0.321918391148497
0.777253840937960   0.491414638223291   0.676733955825454
0.158128604109495   0.465130293673963   0.095579397061957
0.490383556734419   0.530095686960990   0.977075938571250
0.553942134478237   0.917561076621962   0.538183517056056
0.880767084666816   0.246308516712684   0.374706457237537
0.920783110957307   0.878278951605694   0.444234200415695
0.919676063975008   0.227251183406271   0.269117232503019
0.428036161539504   0.621241261281081   0.976914527732084
0.883240396910881   0.402971462079411   0.219763694933380
0.586959095656145   0.395292044912422   0.875859040363475
0.435020276038016   0.089106690727829   0.971789342700819
0.048556844966709   0.647931397207080   0.159734730821269
0.778442861870158   0.506831924226158   0.359874975803204
0.810074250644988   0.181070936238928   0.542685407984823
0.615609293864306   0.374853907421262   0.767589609954926
0.781545924483335   0.104845742347556   0.733143282067681
0.545195991242182   0.117661361972049   0.322990959309419
0.249480805891367   0.281359764577833   0.095522470315440
0.296571723360817   0.729525026395190   0.476967153475394
0.031175168822400   0.236953130065902   0.862365833919560
0.005843229665679   0.776805808652126   0.802539208378056
0.986441553760314   0.106424284519389   0.133027441934769
0.075625879783290   0.201545453736746   0.759389502800905
0.045278330389343   0.587466716240911   0.338604824963118
0.214434241830151   0.454528547684946   0.871735424788222
0.255803771364600   0.902703722520426   0.177059839476216
0.224406612281317   0.061218657075495   0.282745710706703
0.557709970269557   0.943985453466823   0.201866008371160
0.601085602996175   0.836049692673120   0.708541891517745
0.414588963689385   0.191201281547684   0.792680419725582
0.278296302644142   0.772924456669524   0.977983440993491
0.525651046082548   0.357752370870919   0.459288760090392
0.052120695853432   0.658432661626789   0.661467106411829
0.550341027899772   0.290161416720866   0.555641575161113
0.553522494839576   0.315104002330286   0.161943954476693
0.385693565911428   0.371817395398755   0.639679924993971
0.073360694440674   0.738146938712682   0.983160405752086
0.889855333622314   0.934102195510261   0.765100009870064
0.229427535134887   0.230476109234048   0.192501662938087
0.580754224754903   0.836564532599782   0.366817733235939
0.245281423916040   0.893665987172015   0.377166550655891
0.939586093241915   0.943059461035921   0.266280481252368
0.191910425801531   0.284080708102696   0.285610936045301
0.185688877275189   0.505112403710113   0.680929959046801
0.239334382323315   0.951524040720881   0.279024369801259
0.460190500222007   0.287711628774361   0.629946499791701
0.755306159813526   0.279468795945338   0.554496103461657
0.316303087447483   0.746290205883212   0.275682118565704
0.664423876902331   0.278729486608932   0.728427372763472
0.615414531628669   0.858236115451231   0.821516534002345
0.981004077176459   0.823809123482722   0.124777844028487
0.556481990538101   0.192739861883563   0.494871275994220
0.619203299741713   0.874256998903458   0.144895172098692
0.441355097945304   0.497872159479349   0.366667833941303
0.976135393400836   0.924997148212956   0.163615936475921
0.336272155350318   0.635605845257129   0.694971186124180
0.850844127189372   0.428487179772183   0.624056795499417
0.485874312728848   0.461056488734616   0.269166104184351
0.087154744852111   0.074267856025430   0.944486560758556
0.864785862269017   0.999602716977451   0.587252605820707
0.725749860786773   0.842542008426369   0.990090698429797
0.283258107536644   0.788016130122257   0.377513604992637
0.815271526157043   0.097807213274892   0.622178796219646
0.312905595102846   0.295598650171404   0.921924782716129
0.786398596662859   0.001834657388940   0.904077753616763
0.108905145432583   0.587415229366827   0.728695147131130
0.904703144085728   0.920367161716628   0.657109462183920
0.502579160145010   0.016587012761110   0.812306599938554
0.877194744862538   0.469751651527721   0.133566453498875
0.937682673660411   0.859308938087276   0.835939910388620
0.558119946053521   0.209579599638545   0.143977199440967
0.851969587154280   0.347249844844718   0.404825211870341
0.927414272210066   0.305606695781839   0.192219553903733
0.444550383745327   0.102173102072862   0.859058082395648
0.079164309091032   0.518161463372734   0.415281682549884
0.243181787010937   0.439593910653185   0.764497493533994
0.037243393489729   0.629777544536033   0.556049992919357
0.886309707043694   0.978403295604509   0.479168991138444
0.822315375706140   0.587471977526489   0.010428052307978
0.186882671504232   0.946956331552358   0.866828255901968
0.535136578262185   0.060849036211481   0.033890399971938
0.631244852459438   0.741552106216953   0.649630071848067
0.544254032660120   0.309128640255178   0.360976990310903
0.312434987880423   0.231420126283151   0.016132757015816
0.233437245802310   0.888750607247005   0.575853793311950
0.714164230491581   0.187433038400639   0.784348736189021
0.115564398094599   0.442557863122748   0.586158319381754
0.564682424591449   0.945547735360240   0.871545354139830
0.295902824467848   0.798474474202003   0.176640348285174
0.674794765981960   0.648374146359173   0.691984268902186
0.383507461889643   0.592136416543442   0.367815983519362
0.187607996373703   0.223506995244950   0.383671939240348
0.957210459860858   0.352162600643950   0.997990321254444
0.655467453446873   0.651531148818114   0.471792568965148
0.174349538235401   0.810958405718045   0.993047436737750
0.633271430802124   0.759703280911006   0.308199557955566
0.738381387254012   0.633889362764640   0.783776725763431
0.302855694471711   0.741105319630790   0.682848277304934
0.385917993782048   0.450477759396867   0.553535230776010
0.215752223225688   0.380528015807242   0.054340513905159
0.606847313281632   0.988827452879320   0.976222168330803
0.587079436776662   0.475477665720716   0.708029572228468
0.821176610627250   0.563253962577772   0.121902092103077
0.557445493997262   0.203025128549099   0.386551025418279
0.699676683964255   0.061007475955500   0.934349829895279
0.805899126338132   0.381575694326092   0.512387484701397
0.154126149865902   0.392002822586385   0.288852258877638
0.163264091366483   0.044631810713921   0.666085991428066
0.202518210813922   0.112920192266428   0.379813240782318
0.964112393268473   0.283588051747718   0.085960492044490
0.551651261929895   0.930325923837564   0.313800881548791
0.088266496990260   0.997489983251674   0.020922640930632
0.324402458847372   0.748186337941409   0.077768277171747
0.824305138093443   0.019721377448835   0.800436184752902
0.997788843725087   0.681168680545958   0.373630690543488
0.153499845225824   0.539237917835461   0.910501058951982
0.943557008502451   0.395401425953128   0.689369874436165
0.459048319574565   0.195156582307665   0.690603812958539
0.174278538292314   0.921328901596074   0.986010600366034
0.674623606720031   0.668646659169799   0.361213610330968
0.006959878371575   0.754271438725037   0.694325516576052
0.863095237640696   0.162648915946115   0.444175323595756
0.070357578290715   0.532412383975318   0.523495013227180
0.473444769736446   0.516940672465209   0.172749848629801
0.286728028087677   0.796311045173079   0.779686290008857
0.348875070629623   0.129433272999804   0.032018025030912
0.084789944037016   0.642489196258681   0.055288944773155
0.506854290048916   0.531838144629529   0.777964588677336
0.501815486862498   0.103278301343963   0.646767932339938
0.280282514904816   0.069511575282390   0.097733144819141
0.087132330041572   0.260260358378763   0.662939207869503
0.749211744223216   0.483382229608818   0.466075977539924
0.886784984006083   0.061764994365459   0.407463958046877
0.110545412258667   0.613344599190706   0.836765616080348
0.542433084509765   0.011703476038371   0.484097245739230
0.917627769083355   0.863728096893317   0.944687195296752
0.625197346915366   0.225552955844942   0.965139195491469
0.579267835074777   0.169349139438717   0.045227341817875
0.556288536628319   0.919932338568435   0.650707656070864
0.373587440123010   0.650694683338610   0.272310146369858
0.765734007783610   0.623402634005114   0.195593185685873
0.072504880784121   0.566097675952657   0.232691548345219
0.152486346142694   0.375927939922118   0.491108148594843
0.755434333097844   0.747519765173458   0.046304253951876
0.953639905235202   0.799863935302654   0.516187051567991
0.393271860829277   0.662146817489253   0.076261427421641
0.245215346927320   0.964121926511693   0.081595253086189
0.579128381143675   0.828043235035919   0.479685374866465
0.998422992427801   0.741477326391712   0.194916008602252
0.321051352780237   0.745764119484746   0.877577168544591
0.243609309208897   0.120823115120803   0.190878758183487
0.873174068883975   0.489278110832627   0.844015730323435
0.511196473703469   0.476145764961044   0.073972405523647
0.530544125861518   0.037571552355911   0.151100875590214
0.649062650602036   0.903887108611233   0.042694733367678
0.166337147978370   0.101812640270163   0.571089781402984
0.981870794515873   0.805438181244970   0.015951244943630
0.595722255183136   0.333103926167021   0.967967778180598
0.528890625500324   0.490112869764992   0.880555598145431
0.270592822054618   0.567806969312378   0.635056800929240
0.228325588260343   0.893494257723015   0.778173758457525
0.060726896674379   0.706684968296668   0.871166300185572
0.352575284973899   0.283487943221449   0.818119675948890
0.418297986264123   0.608020542407810   0.775993000953242
0.685708570539665   0.554935784422291   0.521882892211931
0.670649345540841   0.541538538541931   0.639400621620808
0.415946828640096   0.611813986056859   0.174783692666154
0.275996262853245   0.783608744318895   0.578019847088022
0.779760452452019   0.675895176051267   0.970036506863722
0.206734347406085   0.941074079999520   0.673746579062349
0.688153579323088   0.800547542636903   0.881327563718557
0.221933078536262   0.944471988988248   0.475902146710276
0.196483838134527   0.052923921583260   0.474951302179976
0.739645163370579   0.704367074986718   0.867241946080945
0.998721106302509   0.186238216792938   0.058763655837210
