generated by phonopy
   1.0
    42.7702331357000034    0.0000000000000000    0.0000000000000000
     0.0000000000000000   42.7702331357000034    0.0000000000000000
     0.0000000000000000    0.0000000000000000   42.7702331357000034
O Si
3456 1728
Direct
  0.1857260516863910  0.0182002978223250  0.2010626430937560
  0.7598921964461270  0.2694633756948160  0.2894559157702230
  0.2642052257266720  0.9953018414685170  0.1246129412736660
  0.6787116289008490  0.9356929823839500  0.1657739675513220
  0.3185176675744820  0.8262723466546190  0.2100858361349430
  0.1207523041460610  0.8549180497564181  0.2060311526018940
  0.7397267767893400  0.0191739636863350  0.1304524768966680
  0.8820031861952250  0.0133657076449940  0.8233332558247620
  0.8479709868527100  0.1035643870807600  0.5657362358355540
  0.1680346393529750  0.0197351190095680  0.8079132907778680
  0.1035828312168370  0.7917566428164799  0.8820293445749670
  0.2669153301965780  0.0516024484364520  0.9425082667214280
  0.8429063125659760  0.9854182338982990  0.1531596512279050
  0.9276611252998410  0.1057357944636790  0.2417709851426730
  0.2809335703613610  0.9412585985274200  0.2720104041305590
  0.0495607819876640  0.8885048949681870  0.8236478344233240
  0.2287100860302550  0.2608841799996280  0.7967770222780260
  0.6899823156532580  0.1371905666584340  0.9758653399801460
  0.2428542128130250  0.9185056923902840  0.3162875043743570
  0.2847800983771900  0.6944263106017300  0.4658178232694810
  0.2028492274632540  0.7856168399501540  0.3200191627801840
  0.8845036612256200  0.7153594160435300  0.9600028989724610
  0.3345595745199770  0.1958078356372030  0.1502353601770900
  0.8690602172325910  0.8403610493766310  0.1376513228562660
  0.2760592784832090  0.9107215940678900  0.3705228973085100
  0.7475015111225610  0.0858106458843820  0.3848963541482120
  0.6821554703111270  0.0783296020241620  0.2219006599727450
  0.0308892202155720  0.9726298327159950  0.0859822446684410
  0.1219082810106980  0.8182018786049170  0.2849546075966350
  0.9289440409160800  0.8631241565336820  0.9845401886493790
  0.3078042258556540  0.9909779206843290  0.5556936134669260
  0.7748552713017050  0.1484542445643160  0.4837670356940260
  0.0499215457448090  0.2581290746059740  0.4691425748449240
  0.3310884173829800  0.9953735455434110  0.1481443781215030
  0.2388260888733360  0.2500360160785210  0.3794373682395030
  0.3231118627797450  0.1242768968112850  0.2254076153714710
  0.7821807445813560  0.0695726794511260  0.3357644358504380
  0.9926992557017560  0.0722484338627730  0.3704393438710370
  0.1650656333249480  0.7957722042808070  0.3708746021952300
  0.8873304543276450  0.0813420714580130  0.2816762784943570
  0.1152242877508770  0.6281755681517230  0.4433402067236510
  0.3270188908165060  0.5600873678662480  0.5015259007811090
  0.9590749171241020  0.9699252157074090  0.0227518143030130
  0.2420565646007330  0.6540160959901720  0.0481243785477980
  0.1791706721748870  0.9935945021662430  0.6441626682881790
  0.1970738822782910  0.3219909453452320  0.9093805749572850
  0.0116498269116070  0.3388484078171440  0.4004514482223830
  0.2471005235456270  0.6820298572478800  0.3781785628495680
  0.9688971362050020  0.4949183707472340  0.5931243166132160
  0.0503273029438620  0.3954573533966120  0.4883603260643800
  0.2741713112200010  0.1924926255108020  0.6051250812190930
  0.3336720881254190  0.9696529866558850  0.3022739239924510
  0.9355926064990130  0.0223452421680230  0.3213193216973350
  0.8736380646195520  0.0332745488079210  0.4152313863628730
  0.2297353981874470  0.9564411554692940  0.0103205539142020
  0.1169311940417170  0.0904875813447370  0.5531125309731800
  0.1626538473131040  0.4476210087342250  0.5398288951744830
  0.0597547502696860  0.8484522327681741  0.7230048361412540
  0.3058447555919760  0.9933031032402549  0.4090886421985750
  0.9794745954992879  0.9056292112578880  0.6404689872297010
  0.2136456925780200  0.1460855796641600  0.7598747637611650
  0.2255223648044330  0.5311081664654160  0.5840979080178940
  0.5162878778317560  0.1704316545779030  0.9416275654196490
  0.8325582838658340  0.1328657251404290  0.2559021753581300
  0.0284378996986290  0.7991812948868220  0.9303242134256080
  0.0389563658611260  0.1110817634527780  0.7122939546142220
  0.4124332159713230  0.3479332378849900  0.0749637880118030
  0.0636289727803340  0.6068422474493300  0.8089556956639610
  0.8455873547673630  0.0561005997415810  0.6643851790529860
  0.1399915530271520  0.1442008945902150  0.5692678322035410
  0.2870098150050470  0.2403022019400970  0.7950444691781891
  0.3470427517405930  0.9535600184970210  0.1873310571999730
  0.9632955020207820  0.8513187754781700  0.6736088182776860
  0.2133313676605630  0.1926868659764470  0.6095957839948600
  0.0856647631163310  0.9510527326550250  0.3699151638898600
  0.8579784936774210  0.6213104617804670  0.7842558162724170
  0.8358161080529940  0.8586511601066340  0.3805732657186180
  0.3794210227592770  0.1361229685498350  0.6347865491838560
  0.7940356413828600  0.2087269066707160  0.0942594964869370
  0.8900924313228420  0.8217228951848869  0.3925796206611020
  0.5325492995965920  0.7256091614355910  0.0230498171443710
  0.6050599751910020  0.2475293241074990  0.2048883561657630
  0.5059209574880390  0.9263986234138050  0.0320182196729000
  0.0485588550198120  0.5604676323354270  0.9768234502590870
  0.0915900873762190  0.0620247713306410  0.3079165656688310
  0.5383936843865210  0.9529019837392790  0.8211022906650151
  0.9737913204226990  0.7582216116781340  0.1651748232838890
  0.0392097797241190  0.1900909168347220  0.7317161400712060
  0.0909539150197650  0.1202725695620830  0.7707434770208080
  0.0849440583705280  0.9957968212347680  0.8301081242029780
  0.0699553530724760  0.2220984386468330  0.5145413126502431
  0.5813615072218390  0.6385082450533860  0.0096239992354970
  0.7475665633749340  0.6312486470284030  0.9825074290961600
  0.3180353461446560  0.8671036625480630  0.9004268921755010
  0.8038869578033990  0.9878053801099190  0.3413005969288390
  0.1377393635267020  0.0407664738339860  0.3390302118296530
  0.3921680961331860  0.0108870309526400  0.7546159871890010
  0.9541381425376720  0.5003580675396700  0.8288550213772360
  0.9782223788038570  0.1998719222052730  0.2022504411550580
  0.9239197171225160  0.0374450612630220  0.3807341650052360
  0.4160498855253380  0.2345261029598510  0.7857739538938320
  0.8696933351282560  0.9799434028573490  0.4448843460738030
  0.9238806432181320  0.2592774433755380  0.7740567650159980
  0.2668633407675530  0.8824141846563330  0.2761875569516150
  0.0946866877519940  0.4732237637280010  0.4061341902179390
  0.2012630904463060  0.0711768367112080  0.1748656023517740
  0.0830738422380560  0.3407886988540600  0.5289325973095320
  0.8416753629980140  0.1042472084698170  0.0883696176733070
  0.2044819265364260  0.4657959038191700  0.3931319721043370
  0.9906127929107570  0.2000191416506290  0.6939733787708799
  0.3643823392440560  0.1229867619217950  0.3710067922626090
  0.2141220392917580  0.2401175314480060  0.9891972079218260
  0.1874621256929180  0.1556996616986290  0.0911639632084550
  0.2570749419371860  0.4568927140986030  0.1382154628721370
  0.9123106735518470  0.4404047118526820  0.1483362211253510
  0.8067218874053790  0.9370141138311590  0.1387605436044780
  0.1249159054861570  0.0902022745061860  0.0764306523564730
  0.5549313566913660  0.1821055322585750  0.8908938485115500
  0.5578852802671190  0.5374123149404670  0.2951423776426280
  0.9888773826836370  0.1545737237163130  0.5279216278377780
  0.0356778801078430  0.9781608079447121  0.2716888814501390
  0.1935986075579400  0.3791663386203000  0.2465403442282970
  0.1180375957732640  0.3503262012264640  0.1388532835712540
  0.0665919199215840  0.3725937557889620  0.1100999399526170
  0.0203371990804970  0.1217437413417730  0.5689635972474510
  0.1396916187256650  0.1212653172486640  0.6753850419367660
  0.6220006894887500  0.2911070384044150  0.5736544344323560
  0.9969588607271010  0.8474620978800700  0.9453131520635160
  0.7067728577511120  0.1538287301152990  0.7395031399443019
  0.2164874954181950  0.5398263326446120  0.8056246359629780
  0.8871252321589430  0.4050306867637900  0.8219165088127049
  0.4015864946423070  0.1818562429931610  0.2907465610614210
  0.2257526999996790  0.4272641311544940  0.6811304419962030
  0.1733049035875610  0.5608937324210210  0.5868541076305080
  0.3632809751282570  0.0576181044461750  0.5207386999583510
  0.0990668230999960  0.2179436766319470  0.3779097707678530
  0.3814617995706410  0.3624859245169570  0.6800529075377451
  0.9373304436476710  0.0813552738644210  0.3387908958556780
  0.2795642395042160  0.5861596363166440  0.4691841294465640
  0.0995002392551340  0.0511913059499430  0.4128172353884700
  0.9898074921799730  0.4464683753164080  0.3498326804188250
  0.2894413893121130  0.0449050682961300  0.3787959244598310
  0.9370452219150400  0.2789851849098350  0.8321184569436770
  0.9028480246409580  0.2966210415488860  0.3972906938825340
  0.9554611935442090  0.2179681681982350  0.7418835501627120
  0.8063877531500280  0.1154871974704550  0.7439671371218310
  0.3494636106513090  0.4141044881332780  0.6818533419603420
  0.2825398978223790  0.2082303019425480  0.7031106237973470
  0.5157816121789290  0.2217106430052380  0.5015346989562049
  0.0450906955283880  0.2256990842058920  0.6828604863418870
  0.2667966682294130  0.2811422598948430  0.7539655371455860
  0.1309702713620320  0.4819932553230070  0.8172540815734770
  0.7906826692457900  0.2208611449469810  0.3102104203618540
  0.9627440016367370  0.2605474808763310  0.2846898767506730
  0.1009373120857870  0.0382504349417370  0.5284938950013059
  0.1479747089504940  0.2394687133807310  0.4992965512309800
  0.2392913634005260  0.2379924202822190  0.5011635950637000
  0.3833292174953130  0.3105371055112120  0.7808666858101140
  0.2651824544424330  0.3836393607661700  0.8809388969299420
  0.3089817691213230  0.1740115473859270  0.5594567961339310
  0.7788516278204480  0.1515254931961210  0.6452172031058150
  0.4411197862808010  0.2890747441280610  0.7961754917715550
  0.9692243310546440  0.7615879529263380  0.0248163321119250
  0.1837271479224400  0.5218770500778260  0.8858240912504191
  0.8759078535096900  0.3431201240694340  0.9082160968530399
  0.0649282212511970  0.4647859888191060  0.2439926003416960
  0.8801116299873520  0.6549745943895130  0.9770808372124170
  0.8358221893852890  0.0877601664711750  0.3157094037144530
  0.7542426691397560  0.5324346357371640  0.8828302544014650
  0.4405422374065260  0.3208835910820520  0.5911591437853450
  0.9505804485798860  0.7461069734820780  0.8351443184017940
  0.8554608314599070  0.0917603653818790  0.7135680369842460
  0.1541095501885000  0.9459138338488710  0.6162615344268360
  0.0862313076082240  0.0270932327238770  0.6986401782097970
  0.9496912740953950  0.6138441709377960  0.8393299373913380
  0.9140061962245880  0.1158715734439940  0.8724316040459970
  0.2013951257331400  0.4418503995533740  0.0047196958538790
  0.1705137600457140  0.3485367300361340  0.0399614197700830
  0.4370592800065190  0.2623109924232680  0.5751049806522740
  0.0883646918175290  0.1424821237393110  0.8286905214555810
  0.9138547567882060  0.9669813154578940  0.8461349271859120
  0.5823879243531350  0.2876821657941760  0.0173341592188140
  0.6199188841425530  0.1955754312458480  0.9619424768965930
  0.9654867409533040  0.4192413738571160  0.8943313864724380
  0.7602311354449870  0.0079002203688710  0.4397092772520420
  0.9415611243509040  0.9296393515987610  0.8858922414517690
  0.0258960961584170  0.3317845954913740  0.0211242724614910
  0.9448491938723820  0.5577724798532260  0.7442109819464990
  0.0876743350475220  0.2978288628819160  0.7747200814844870
  0.0706083579301160  0.1694165567676510  0.8801638859568930
  0.9814565229704580  0.9863840972329440  0.9706998712931030
  0.1165991928119140  0.3331911859069360  0.9196082138530590
  0.3751606181123840  0.4971991181934890  0.6537821762926040
  0.9785228284170080  0.3515343872991480  0.0532951612110190
  0.0889944725791760  0.5461909250268030  0.2553853883691540
  0.2627319183495510  0.2786029775005800  0.9884874783324710
  0.8930873203054110  0.7194337403392880  0.8417382922785600
  0.2449185013035720  0.7818929462904050  0.1525143629520050
  0.1250847895316820  0.6215444913675460  0.1519957001256970
  0.0147566515009990  0.1784307182938880  0.1038596838110800
  0.2159594260497550  0.5916781355787630  0.1805738660693320
  0.3729216006233710  0.2804454668728030  0.8821325331637691
  0.1108426263415180  0.2092898250425560  0.1522589996023270
  0.0998435703273170  0.6728011233584090  0.7517260917889030
  0.3054035164727010  0.3526944230614630  0.9162852766235829
  0.2129362935924280  0.4787326675315510  0.1027280488759510
  0.4972778668874540  0.4116921117575720  0.2533991074028930
  0.8514521252306000  0.4292860420411060  0.1391474194474860
  0.8954113782474060  0.4907352534976190  0.0469510480251240
  0.9711963567794600  0.7222572858555550  0.2768777963502720
  0.0579226040723210  0.2826712719016870  0.5269375251823990
  0.9637243820771940  0.4682711603758530  0.3014385345783550
  0.1761557613234340  0.3157000818106250  0.4152890526372690
  0.6900639775882990  0.5451958708295300  0.9175440586327710
  0.1373064196626550  0.7999867546066860  0.1813276300223530
  0.8972536782355770  0.5468041108356529  0.4985548624985540
  0.9663119877993520  0.6574845222559190  0.7723326687323510
  0.7149982279258270  0.3636409497851910  0.5053370069652360
  0.9049923056812090  0.1945207026018200  0.4583679129781560
  0.0955092654519650  0.3388315105512880  0.0320543431608200
  0.7118571975841460  0.3618809406741540  0.3184063144288290
  0.3232466060246960  0.8220878195459600  0.3628022099100500
  0.9645677209452690  0.9910403426026650  0.1357052118838070
  0.8941368633335620  0.5955106842459610  0.5853287547105690
  0.8086830364066920  0.3420766810781740  0.2164878487012820
  0.1927033271913710  0.8441047208102650  0.6296855342020620
  0.0342802293208960  0.2978332210531570  0.2655382953832970
  0.2683180043370170  0.0518816229726800  0.5094773187432470
  0.7953282506568050  0.0841769552337300  0.2720402683587000
  0.2940991146831200  0.0397751427868660  0.1601248615660110
  0.9638937498703740  0.3017968468641770  0.4006075474416410
  0.3905595732200260  0.3545186567464300  0.5891728277479630
  0.7086105096467810  0.5245200003662041  0.3654511573600330
  0.0713255955449460  0.0779288751928250  0.0464552314619380
  0.2477963556189660  0.4714648932593430  0.4623838251536880
  0.5144600505259760  0.2763491716890910  0.1432367633013070
  0.0198968375341790  0.4106844506615180  0.8768534784697330
  0.4288106179316440  0.4366050341776880  0.3534530698496880
  0.1433371529808860  0.2813180527172980  0.6498353355198540
  0.6687525506173950  0.3253242706405990  0.5645252534255290
  0.5187561084739660  0.3911338137186000  0.7941156339325650
  0.9872384835039770  0.3188544882776640  0.4549645179221100
  0.2624101244524650  0.4522059638682740  0.5780431128715050
  0.2245296271715730  0.3141534524109180  0.8452630030165560
  0.7587726257426410  0.9793710187900860  0.2345990017909160
  0.7005798940803361  0.2498561596822380  0.4770035490634480
  0.2587422650909730  0.7967904030795330  0.5909336902562650
  0.4907089641856940  0.4440121740685290  0.7833973687656310
  0.1491146571440270  0.3689021065173990  0.6828017632577260
  0.3095265709213520  0.1199107190678180  0.7891171458644330
  0.8959149036766840  0.1316158785513220  0.4565636955506950
  0.0602552836647710  0.7022646826521300  0.3463172939227320
  0.8269304258357800  0.3884300314026820  0.8192509797369500
  0.0106198271718300  0.2791665517023740  0.0461807314384580
  0.1972778107902620  0.1738981884059880  0.0325560895490590
  0.2063327642381710  0.3394664123979500  0.5118642825850400
  0.9948654211211980  0.5303170905811050  0.9854409576463060
  0.9992375834006670  0.4782424480853890  0.7920205646885961
  0.0917191413840020  0.5622652821110560  0.9327825680402860
  0.1570402826351130  0.4837477442396780  0.9265136894220820
  0.0376677878955790  0.4512209166307170  0.4015518630798530
  0.1786023811411940  0.5086335122602310  0.6188438654524721
  0.7055318310811940  0.6181169977755679  0.0250476069793920
  0.8622417858465670  0.4847023333781210  0.7807451643775910
  0.9447413782337490  0.3253535737308120  0.9528738707290890
  0.2458726789408670  0.6533043673469490  0.8316906944869710
  0.1265004876834290  0.2849304061854170  0.0238029939366930
  0.4273708993356610  0.3717266924769080  0.0203683413002690
  0.3274580513873740  0.5180956912181049  0.9289666524365020
  0.9841155709031451  0.2574510726902960  0.7788154741713640
  0.7839500101301290  0.4516474048367110  0.0809966277015320
  0.8110339751935109  0.5968549509423240  0.0498769079240630
  0.1370813860517910  0.5886657437689909  0.2489551381732430
  0.0958745615669160  0.2048719178639700  0.8352210727180400
  0.5343187264725200  0.3892210231163040  0.1556583656880510
  0.0168202953375890  0.1833287110014640  0.2484884070255150
  0.8033382724612930  0.4162113272452860  0.9167973219970680
  0.1579378115281210  0.4677770760922120  0.0421788091328920
  0.6927230489017320  0.0795044492558940  0.7336397676497360
  0.9128207923517790  0.4534183865323140  0.9893661151142900
  0.2239468648583330  0.3696165029038550  0.9398764129355750
  0.6744200998035520  0.0955035327266080  0.7929135993344160
  0.9523008366770590  0.9915108637694811  0.8845304041240371
  0.8954562716197170  0.5703247378289220  0.9731361989060340
  0.7925608773852010  0.9922868543958290  0.1189429509037150
  0.2179025391428340  0.2808751675934340  0.9474919501005600
  0.2315974181990600  0.3225558616019040  0.7853375639414840
  0.7445175526392140  0.1739042716087420  0.8458773204535600
  0.9031284533204550  0.6113729966595380  0.1531236953799410
  0.6083997301917941  0.5011808196600130  0.2862731905424210
  0.2275636468737410  0.6418366487015110  0.9361479109305930
  0.1812578253993450  0.7941326013406620  0.8270981172294010
  0.1344897286799850  0.3682385726079640  0.9938593779728360
  0.1397263569043250  0.5634240366084360  0.8939165979922420
  0.0853736040768070  0.3425312355328650  0.9723939116264840
  0.1578436341130200  0.1407678791672190  0.9978760757414670
  0.9738917687879530  0.6268061063623950  0.3428113579245760
  0.3912624756312570  0.1849033725139770  0.0980375913943770
  0.4676308038009170  0.4782731493442730  0.1271845007891600
  0.7204191219215270  0.7609141010932520  0.8510734389618440
  0.2305218269144850  0.6491161086710689  0.1701780588126990
  0.3364848878503650  0.5461292770111930  0.0333106694901510
  0.9466078796331390  0.8096133025540330  0.5512472523868590
  0.0307082567409180  0.8826798554083241  0.0914428992610630
  0.0511147550461960  0.4494928596485270  0.3016807591172560
  0.9002599629942331  0.6517740413421240  0.3864390392159010
  0.0874398224142110  0.4012849999097650  0.1577505827146940
  0.7121101889570400  0.2428662492215800  0.3197142848535510
  0.7326128034089610  0.5419682148202210  0.0534580789575250
  0.9119323169516230  0.3626215515541440  0.3290212366940300
  0.0351268789027470  0.3602697313131630  0.5585806423874430
  0.1292196814187310  0.5013550693531670  0.8747545724451820
  0.9888900153012410  0.6101145092477630  0.3999366275542290
  0.4468519247805410  0.5303317760282950  0.1486206928036180
  0.9104395193838050  0.6717054197214580  0.9258661876908630
  0.8797787957015341  0.1558896456992830  0.2855944801901090
  0.2204839204425270  0.3227007988525450  0.3711053608158040
  0.2796095303492260  0.6122854256349940  0.5898310822847260
  0.2746459170033170  0.6227021797028630  0.1330522202660160
  0.4551553866502300  0.7760370394683560  0.3052813544077100
  0.5667232984935020  0.2838678891807560  0.4395245903934290
  0.9854042732542660  0.4531719254020560  0.5514145720266020
  0.9311438091451070  0.5888924060826910  0.1036638391923840
  0.3672360131909050  0.4819877538332390  0.5910897497282540
  0.9825487545664791  0.6434988070482850  0.4508860435437600
  0.7419909449478990  0.3415181407512090  0.9469654484112070
  0.3757160137288790  0.2406369557852440  0.6335336193756410
  0.1122071073303130  0.4877736750652990  0.4650906516428660
  0.8396450888182010  0.4840752056298360  0.2188922349405090
  0.9917706075021080  0.2214670146862870  0.3729340438569240
  0.0266696135693470  0.2107756376122090  0.8873536690713399
  0.9006184179026120  0.4387224998392070  0.4082363578566970
  0.1167466156697690  0.3879924957937320  0.8869208423448340
  0.7906004087636260  0.1265095816249740  0.5643381864068709
  0.9872795611383780  0.4524651300964500  0.8463239020735250
  0.5517663447174890  0.7459836143228400  0.3666609029285420
  0.8117261154468990  0.4355417970460200  0.4845426171573010
  0.7775223668875080  0.3377905576095840  0.2611596262419390
  0.1823550686584850  0.4891035953353030  0.2599669486187390
  0.1006530807615980  0.4718987206818200  0.6421757466894500
  0.8789461769059570  0.0696996240479160  0.8471696561727660
  0.4081282102114570  0.7021819522169520  0.9100769775208510
  0.3427598594912370  0.8262332587217880  0.6621826191627670
  0.2149172566077840  0.4587135108137610  0.6180830115217310
  0.1816755794934910  0.5226744317496020  0.3806722457729600
  0.9139170033509390  0.5110656664098230  0.7651758220762001
  0.5825948954017121  0.5893130350734870  0.8559494960863940
  0.1785612693709020  0.2626764638938210  0.9017700856955770
  0.2351686082254360  0.5627966797288310  0.7522307090990660
  0.8755489730717160  0.3779093545905560  0.6394617493251680
  0.8816523440580690  0.5423972889368330  0.9204200331361070
  0.0882032578132280  0.2123189373597360  0.5705125553695590
  0.1892281004015510  0.7722335904788710  0.1665988947825590
  0.2278249685729830  0.6878489744645270  0.9796918213434990
  0.0807962373980040  0.4051751143141480  0.8385075406583480
  0.2251478375029530  0.7235668789041190  0.1523171804869650
  0.9929991161200830  0.3809410214881530  0.6191482009457741
  0.2313686273021540  0.7498420922384600  0.9773418177865600
  0.1086149190550580  0.3232577375983410  0.6822616352690219
  0.8384125189644730  0.5147890059458670  0.7310669408977550
  0.5734382116221910  0.2702541452913410  0.7366113951271160
  0.0927651394232940  0.3936945666528320  0.7757434918517190
  0.3502928953523650  0.8574935161947360  0.7906029011512560
  0.1109422902827100  0.2909214724297140  0.5000543235792670
  0.1796116779543070  0.7649737282514470  0.7748182081415630
  0.8778172281848500  0.4321635105741750  0.6696351340693070
  0.0228309878952920  0.7110802647136950  0.3956545279121970
  0.3100947932156490  0.4941095325094290  0.7795492438447830
  0.9896665156278720  0.3928140103116840  0.5355262438558400
  0.2041860848008930  0.8183441481123260  0.5365508676838410
  0.1327824578833000  0.7613555763580721  0.8142606819444920
  0.2040917521376320  0.6053151152545450  0.0688876392291790
  0.9488645542622850  0.6193880757196020  0.0539293062229000
  0.3975705099864590  0.4174018094163430  0.8772378602884590
  0.1332364890768730  0.8379917660557170  0.6138300793615800
  0.2649264212343540  0.7396665737038950  0.2543931211569240
  0.8689679521287870  0.5743203882491060  0.8697556728759031
  0.9367951811924170  0.2855082449809550  0.1116444316506260
  0.1149591552236820  0.5784697249954580  0.8325600397599330
  0.0922164776957430  0.2652619910675710  0.6784672813901200
  0.8812870315765950  0.5617308847434410  0.1248174636566110
  0.3314166456616390  0.6298356806831350  0.9068906259391880
  0.1090078792698560  0.7305181012427190  0.9704669733341790
  0.1030908713078690  0.4469203578889300  0.0750036767352190
  0.7886227132076620  0.3634443457598330  0.6296940892173890
  0.1765834788891050  0.5918523338342730  0.4036476477746800
  0.2046551053913660  0.9768333005677970  0.9134443545361470
  0.8336739476464960  0.0251085849027940  0.8562297611006610
  0.8704276285304070  0.5050859819131640  0.1025548606687110
  0.2501755453623830  0.7261862310045520  0.0947467014533890
  0.4561573989578090  0.4914202579470230  0.3608664547380520
  0.9081566232469001  0.7677590485844470  0.4173370049998880
  0.8764650728244500  0.7395825643418550  0.7873394679228900
  0.3353874914473320  0.7056529503648690  0.0014944170399350
  0.8871584562004280  0.6080326501258470  0.0191339976895500
  0.0199694604724310  0.6511500442758620  0.8027424772520610
  0.8118910408981500  0.9906734402303961  0.9746031537341950
  0.9828083486623260  0.4161919446060240  0.2702480709732710
  0.1082926919127300  0.8253543039618100  0.1313656519517600
  0.9646797591468100  0.3335385279462660  0.8241264920900950
  0.3678841298357700  0.7504833022106620  0.2820134195137720
  0.0088171805097140  0.7079534522042640  0.1656574788245900
  0.1160744654874500  0.6155070938349970  0.3011840024142330
  0.1222717728334030  0.4907915356317930  0.5260707821865780
  0.2164593153052610  0.6445851443579880  0.3402586947288060
  0.1617322084275980  0.2913369436277230  0.4696411154989430
  0.0720312211117800  0.9077043507531160  0.8758794575924600
  0.4513509767120430  0.0156870066588430  0.5990052291441800
  0.7272149371109790  0.8392588599204630  0.2556291747419550
  0.2492472595643130  0.6948169935317710  0.5165494873479930
  0.1361697557626530  0.5097607121014620  0.1673626378722060
  0.1398391007368100  0.5823064518021450  0.3498121591371850
  0.4417634909787070  0.6618051954543490  0.5360021425944650
  0.9484932937187750  0.9155232700220149  0.5882557763988260
  0.2999132868717780  0.0128604478786650  0.4708726332190560
  0.7062363654685661  0.6107230516402580  0.0842888367842650
  0.9903841549239371  0.0150965786169880  0.5373755159827660
  0.2890939677782430  0.4877881781426620  0.3500280288980700
  0.2157399745922380  0.7640246780119681  0.3751323531273380
  0.4685996177858330  0.9306579174752150  0.5176325209581450
  0.0218538211385110  0.5377155398482860  0.6660697080984880
  0.1618643035691440  0.7990879753113280  0.4343437091179640
  0.1801094725286890  0.7049781726542020  0.5060100591767740
  0.3511491848162030  0.6306203689473660  0.7240123172055560
  0.1354941976026510  0.6904778425289890  0.3545701458274690
  0.9023286400509910  0.5439615263771050  0.5577991315667290
  0.1794939481775250  0.2753539959119340  0.2365202468713280
  0.3614755395638780  0.5911848345501460  0.8719591352629560
  0.4564756506717240  0.2736604372219410  0.2409678027075670
  0.0762464031854440  0.0554885320000530  0.8236540537020250
  0.1317603813876840  0.7228865131949200  0.5386755486438830
  0.2682523020998780  0.0599228863651140  0.4324880259902110
  0.3543748324193450  0.1399306503897560  0.6899973775304740
  0.8550393397195470  0.7388039316910970  0.6418946165875430
  0.5628471517473760  0.5647893483151720  0.5280782811807400
  0.9989274424678850  0.5923340707454240  0.9879798916674390
  0.1121681468225530  0.3083475546686230  0.1833650556712510
  0.1494392766043870  0.2930100745590640  0.7689679314033910
  0.4483663752581540  0.6293134904035280  0.1412939569636300
  0.8077075168235370  0.4193772697728930  0.6524122679310080
  0.1142278049899630  0.5487322415460550  0.7253924382774400
  0.3902657403582750  0.5529334063942770  0.1743979189062220
  0.1916426165832230  0.5993999896764980  0.5436758042964880
  0.1022468815197970  0.8702066547524530  0.5118387554854680
  0.3715775443537310  0.4992708160427590  0.7670800670154690
  0.3501520380420740  0.4992309214741560  0.8241186712302240
  0.4485656914501640  0.9586930089884090  0.8664083167942620
  0.1314469369891590  0.8570643906404800  0.0828327988944930
  0.0286601070447950  0.9883267777822030  0.7966851359423230
  0.1421022651599000  0.9994052046520460  0.9700479786575980
  0.0319790566878710  0.9667638020304949  0.4251625106252160
  0.2139637549078850  0.3551261586956840  0.5722467591501340
  0.0912633874969900  0.6787017996348110  0.4635412773434610
  0.8515233990997489  0.6678292121853900  0.7421673830789720
  0.1589026231967670  0.8851256545618640  0.9477622572546810
  0.3795882488760320  0.7082016037625291  0.8215652247794299
  0.4277075563736140  0.6648944210749060  0.8633954199603550
  0.5159196380807580  0.6514386702452560  0.9969765038387860
  0.1730238155709990  0.3365897388102790  0.7294707302859640
  0.1672078112670070  0.7523964482003130  0.7165064708151130
  0.9974490100310220  0.8459920474410060  0.7253535350525100
  0.4753118397905430  0.2468343314029780  0.7708431584975600
  0.2617044748034620  0.8976928528348930  0.1413221807985610
  0.8661138596665660  0.9781355824567750  0.3864735655649930
  0.1488583321442260  0.7348509347676631  0.5963455288886530
  0.0007616558202210  0.7438051669970011  0.9237140226627240
  0.4251797328834540  0.9141286178158710  0.6572870601571460
  0.0984826439134880  0.4851817158480490  0.0294086930975860
  0.5690470548238610  0.3865000863463130  0.8285376815124540
  0.0555970843660230  0.7499771067000760  0.9505770022577780
  0.1119708939814650  0.8678893515082650  0.7002840224174480
  0.1176241577650140  0.6706149884429560  0.1897437106375310
  0.1322409396753790  0.6084145418950170  0.9300353723533420
  0.1708409160833160  0.6358204785491620  0.1886794176313280
  0.0451580959091820  0.5502935026172330  0.1566879294002780
  0.9492349333516330  0.8087127509980520  0.7122559959714710
  0.3344794253192670  0.0899091136071050  0.9022122273116870
  0.3119984396077950  0.8089186512084170  0.0761148256936360
  0.1542792834227560  0.6971465342589370  0.2979048269289140
  0.0484641746848420  0.8089314521673990  0.8576744410911570
  0.6534768658221520  0.1048621798663150  0.2735856071411730
  0.0498925276659020  0.7588320455730621  0.8902493184732750
  0.5084400319026710  0.2808646135242390  0.3015902265268040
  0.1441983970588210  0.6355162506072960  0.9839159016618551
  0.3111684862173750  0.7996975230759450  0.0161940024222560
  0.2500641057079650  0.9676130328468140  0.0689796448066920
  0.2472248646962380  0.0141944341307150  0.6066140817535990