Generated using phonoLAMMPS
1.0
        2.4625937451         0.0000000000         0.0000000000
       -1.2312221005         2.1326687432         0.0000000000
        0.0000000000         0.0000000000         6.8424559448
C 
4
Direct
0.001566597551384   0.001041297204304   0.260361698251617
0.001557325165889   0.001041293453135   0.760361696439402
0.334894433532000   0.667707966621827   0.760361697900866
0.668229491039802   0.334374630506377   0.260361696790153
